0,67,68,126,0
0,55,41,86,131,50,185,169,78,105,0
0,115,8,124,134,103,154,97,45,110,0
0,132,72,71,56,175,39,9,70,147,75,0
0,30,20,136,142,159,100,13,90,52,164,0
0,155,120,26,123,187,162,76,17,40,53,0
0,157,93,199,135,64,109,28,25,116,43,107,0
0,106,85,141,54,89,125,129,33,29,96,77,0
0,63,44,36,3,5,66,11,130,160,117,180,0
0,158,51,194,104,95,23,22,47,82,81,197,0
0,87,192,2,16,171,170,122,42,121,112,99,0
0,168,139,92,176,165,31,113,146,183,200,128,0
0,196,57,58,127,163,98,6,189,177,102,10,0
0,60,145,161,48,21,69,79,156,172,119,24,108,0
0,4,15,184,153,166,193,151,178,144,186,179,190,0
0,140,37,65,191,94,12,19,84,138,111,83,149,0
0,73,35,1,181,101,59,174,74,114,198,173,32,0
0,46,188,137,133,27,195,49,80,182,167,91,61,0
0,18,143,34,38,62,118,152,88,148,14,150,7,0
